<number of tasks>
100

<cycle time>
1000

<order strength>
0.602


<task times>
1 76
2 223
3 85
4 155
5 89
6 131
7 45
8 21
9 64
10 56
11 52
12 43
13 199
14 99
15 213
16 122
17 321
18 61
19 102
20 234
21 108
22 237
23 100
24 56
25 170
26 51
27 73
28 125
29 45
30 122
31 148
32 47
33 117
34 72
35 101
36 83
37 168
38 113
39 311
40 157
41 43
42 81
43 102
44 173
45 122
46 143
47 137
48 159
49 84
50 114
51 27
52 330
53 161
54 410
55 30
56 324
57 98
58 217
59 65
60 55
61 57
62 102
63 130
64 61
65 133
66 86
67 213
68 136
69 170
70 42
71 161
72 333
73 22
74 42
75 134
76 124
77 188
78 144
79 50
80 208
81 106
82 74
83 84
84 177
85 25
86 54
87 77
88 98
89 112
90 200
91 55
92 23
93 225
94 258
95 69
96 115
97 307
98 313
99 81
100 41

<precedence relations>
1,8
2,7
2,9
2,11
2,16
3,9
4,22
4,23
5,9
5,10
5,11
6,9
6,10
7,12
8,13
9,14
9,15
9,17
9,20
10,16
10,17
10,23
11,13
11,14
11,15
12,19
13,18
13,19
13,20
13,22
14,19
15,21
15,22
15,23
16,19
16,20
17,21
17,22
18,25
19,24
19,28
20,26
20,28
21,27
21,28
21,29
22,34
23,28
24,30
25,31
26,32
27,33
28,34
29,47
29,61
29,84
30,37
31,35
32,39
33,36
34,37
34,38
34,39
34,40
34,41
35,44
36,43
37,53
38,42
38,44
39,45
40,47
40,60
40,82
41,44
41,46
42,49
43,48
44,51
44,53
45,50
46,50
47,62
48,52
49,53
50,53
50,54
51,55
52,56
53,58
53,59
53,61
53,84
54,57
54,60
54,61
55,60
55,61
55,62
56,63
57,65
58,66
59,68
60,64
60,69
60,76
60,81
61,67
61,69
62,81
62,89
62,90
62,95
63,76
64,70
65,72
66,73
67,74
68,75
69,71
69,77
69,87
70,78
71,79
72,80
73,81
74,82
75,81
76,84
77,83
77,88
77,91
78,88
79,89
80,86
81,87
81,91
81,97
82,87
82,88
82,89
82,97
83,85
84,87
84,90
85,93
86,94
87,92
88,95
91,100
92,96
93,97
94,97
95,98
95,99
95,100

<end>
